p cnf 250 400
4 21 34 51 52 0
4 21 34 51 -52 0
4 21 34 -51 52 0
4 21 34 -51 -52 0
21 -34 40 53 54 0
21 -34 40 53 -54 0
21 -34 40 -53 54 0
21 -34 40 -53 -54 0
1 -21 40 55 56 0
1 -21 40 55 -56 0
1 -21 40 -55 56 0
1 -21 40 -55 -56 0
-21 39 40 57 58 0
-21 39 40 57 -58 0
-21 39 40 -57 58 0
-21 39 40 -57 -58 0
20 29 41 59 60 0
20 29 41 59 -60 0
20 29 41 -59 60 0
20 29 41 -59 -60 0
-20 39 41 61 62 0
-20 39 41 61 -62 0
-20 39 41 -61 62 0
-20 39 41 -61 -62 0
39 -40 41 63 64 0
39 -40 41 63 -64 0
39 -40 41 -63 64 0
39 -40 41 -63 -64 0
-40 -41 42 65 66 0
-40 -41 42 65 -66 0
-40 -41 42 -65 66 0
-40 -41 42 -65 -66 0
-40 -41 -42 67 68 0
-40 -41 -42 67 -68 0
-40 -41 -42 -67 68 0
-40 -41 -42 -67 -68 0
1 25 -39 69 70 0
1 25 -39 69 -70 0
1 25 -39 -69 70 0
1 25 -39 -69 -70 0
2 -25 -39 71 72 0
2 -25 -39 71 -72 0
2 -25 -39 -71 72 0
2 -25 -39 -71 -72 0
-2 5 -39 73 74 0
-2 5 -39 73 -74 0
-2 5 -39 -73 74 0
-2 5 -39 -73 -74 0
-1 4 5 75 76 0
-1 4 5 75 -76 0
-1 4 5 -75 76 0
-1 4 5 -75 -76 0
15 26 33 77 78 0
15 26 33 77 -78 0
15 26 33 -77 78 0
15 26 33 -77 -78 0
15 26 -33 79 80 0
15 26 -33 79 -80 0
15 26 -33 -79 80 0
15 26 -33 -79 -80 0
-5 -15 26 81 82 0
-5 -15 26 81 -82 0
-5 -15 26 -81 82 0
-5 -15 26 -81 -82 0
-5 -26 31 83 84 0
-5 -26 31 83 -84 0
-5 -26 31 -83 84 0
-5 -26 31 -83 -84 0
-5 -26 -31 85 86 0
-5 -26 -31 85 -86 0
-5 -26 -31 -85 86 0
-5 -26 -31 -85 -86 0
6 9 47 87 88 0
6 9 47 87 -88 0
6 9 47 -87 88 0
6 9 47 -87 -88 0
9 37 38 89 90 0
9 37 38 89 -90 0
9 37 38 -89 90 0
9 37 38 -89 -90 0
9 14 -38 91 92 0
9 14 -38 91 -92 0
9 14 -38 -91 92 0
9 14 -38 -91 -92 0
-14 -38 -47 93 94 0
-14 -38 -47 93 -94 0
-14 -38 -47 -93 94 0
-14 -38 -47 -93 -94 0
-9 11 37 95 96 0
-9 11 37 95 -96 0
-9 11 37 -95 96 0
-9 11 37 -95 -96 0
-9 -11 37 97 98 0
-9 -11 37 97 -98 0
-9 -11 37 -97 98 0
-9 -11 37 -97 -98 0
24 -37 48 99 100 0
24 -37 48 99 -100 0
24 -37 48 -99 100 0
24 -37 48 -99 -100 0
24 46 -48 101 102 0
24 46 -48 101 -102 0
24 46 -48 -101 102 0
24 46 -48 -101 -102 0
-24 -37 46 103 104 0
-24 -37 46 103 -104 0
-24 -37 46 -103 104 0
-24 -37 46 -103 -104 0
16 18 -46 105 106 0
16 18 -46 105 -106 0
16 18 -46 -105 106 0
16 18 -46 -105 -106 0
-16 18 -46 107 108 0
-16 18 -46 107 -108 0
-16 18 -46 -107 108 0
-16 18 -46 -107 -108 0
-18 -37 -46 109 110 0
-18 -37 -46 109 -110 0
-18 -37 -46 -109 110 0
-18 -37 -46 -109 -110 0
-4 -6 15 111 112 0
-4 -6 15 111 -112 0
-4 -6 15 -111 112 0
-4 -6 15 -111 -112 0
-4 13 -15 113 114 0
-4 13 -15 113 -114 0
-4 13 -15 -113 114 0
-4 13 -15 -113 -114 0
-4 -13 -15 115 116 0
-4 -13 -15 115 -116 0
-4 -13 -15 -115 116 0
-4 -13 -15 -115 -116 0
-1 -6 38 117 118 0
-1 -6 38 117 -118 0
-1 -6 38 -117 118 0
-1 -6 38 -117 -118 0
3 -9 35 119 120 0
3 -9 35 119 -120 0
3 -9 35 -119 120 0
3 -9 35 -119 -120 0
7 43 44 121 122 0
7 43 44 121 -122 0
7 43 44 -121 122 0
7 43 44 -121 -122 0
7 29 43 123 124 0
7 29 43 123 -124 0
7 29 43 -123 124 0
7 29 43 -123 -124 0
-8 -29 44 125 126 0
-8 -29 44 125 -126 0
-8 -29 44 -125 126 0
-8 -29 44 -125 -126 0
-29 -32 48 127 128 0
-29 -32 48 127 -128 0
-29 -32 48 -127 128 0
-29 -32 48 -127 -128 0
-14 30 46 129 130 0
-14 30 46 129 -130 0
-14 30 46 -129 130 0
-14 30 46 -129 -130 0
-1 -14 -30 131 132 0
-1 -14 -30 131 -132 0
-1 -14 -30 -131 132 0
-1 -14 -30 -131 -132 0
-11 20 49 133 134 0
-11 20 49 133 -134 0
-11 20 49 -133 134 0
-11 20 49 -133 -134 0
20 -44 -49 135 136 0
20 -44 -49 135 -136 0
20 -44 -49 -135 136 0
20 -44 -49 -135 -136 0
16 22 -27 137 138 0
16 22 -27 137 -138 0
16 22 -27 -137 138 0
16 22 -27 -137 -138 0
13 -19 -35 139 140 0
13 -19 -35 139 -140 0
13 -19 -35 -139 140 0
13 -19 -35 -139 -140 0
2 19 -33 141 142 0
2 19 -33 141 -142 0
2 19 -33 -141 142 0
2 19 -33 -141 -142 0
2 19 -28 143 144 0
2 19 -28 143 -144 0
2 19 -28 -143 144 0
2 19 -28 -143 -144 0
33 -34 -44 145 146 0
33 -34 -44 145 -146 0
33 -34 -44 -145 146 0
33 -34 -44 -145 -146 0
-33 -44 50 147 148 0
-33 -44 50 147 -148 0
-33 -44 50 -147 148 0
-33 -44 50 -147 -148 0
5 30 -48 149 150 0
5 30 -48 149 -150 0
5 30 -48 -149 150 0
5 30 -48 -149 -150 0
10 22 -50 151 152 0
10 22 -50 151 -152 0
10 22 -50 -151 152 0
10 22 -50 -151 -152 0
-10 22 -34 153 154 0
-10 22 -34 153 -154 0
-10 22 -34 -153 154 0
-10 22 -34 -153 -154 0
1 10 -47 155 156 0
1 10 -47 155 -156 0
1 10 -47 -155 156 0
1 10 -47 -155 -156 0
-10 -25 -47 157 158 0
-10 -25 -47 157 -158 0
-10 -25 -47 -157 158 0
-10 -25 -47 -157 -158 0
-25 -27 50 159 160 0
-25 -27 50 159 -160 0
-25 -27 50 -159 160 0
-25 -27 50 -159 -160 0
11 21 23 161 162 0
11 21 23 161 -162 0
11 21 23 -161 162 0
11 21 23 -161 -162 0
-3 11 23 163 164 0
-3 11 23 163 -164 0
-3 11 23 -163 164 0
-3 11 23 -163 -164 0
-3 6 -50 165 166 0
-3 6 -50 165 -166 0
-3 6 -50 -165 166 0
-3 6 -50 -165 -166 0
-6 23 -50 167 168 0
-6 23 -50 167 -168 0
-6 23 -50 -167 168 0
-6 23 -50 -167 -168 0
-31 -43 44 169 170 0
-31 -43 44 169 -170 0
-31 -43 44 -169 170 0
-31 -43 44 -169 -170 0
-7 16 -26 171 172 0
-7 16 -26 171 -172 0
-7 16 -26 -171 172 0
-7 16 -26 -171 -172 0
-23 28 -38 173 174 0
-23 28 -38 173 -174 0
-23 28 -38 -173 174 0
-23 28 -38 -173 -174 0
19 28 50 175 176 0
19 28 50 175 -176 0
19 28 50 -175 176 0
19 28 50 -175 -176 0
-18 45 49 177 178 0
-18 45 49 177 -178 0
-18 45 49 -177 178 0
-18 45 49 -177 -178 0
-2 -16 -48 179 180 0
-2 -16 -48 179 -180 0
-2 -16 -48 -179 180 0
-2 -16 -48 -179 -180 0
7 14 -42 181 182 0
7 14 -42 181 -182 0
7 14 -42 -181 182 0
7 14 -42 -181 -182 0
12 25 -36 183 184 0
12 25 -36 183 -184 0
12 25 -36 -183 184 0
12 25 -36 -183 -184 0
10 -24 -45 185 186 0
10 -24 -45 185 -186 0
10 -24 -45 -185 186 0
10 -24 -45 -185 -186 0
-21 32 -42 187 188 0
-21 32 -42 187 -188 0
-21 32 -42 -187 188 0
-21 32 -42 -187 -188 0
12 -18 -27 189 190 0
12 -18 -27 189 -190 0
12 -18 -27 -189 190 0
12 -18 -27 -189 -190 0
-13 -23 -24 191 192 0
-13 -23 -24 191 -192 0
-13 -23 -24 -191 192 0
-13 -23 -24 -191 -192 0
25 29 38 193 194 0
25 29 38 193 -194 0
25 29 38 -193 194 0
25 29 38 -193 -194 0
-8 43 -45 195 196 0
-8 43 -45 195 -196 0
-8 43 -45 -195 196 0
-8 43 -45 -195 -196 0
-2 -12 13 197 198 0
-2 -12 13 197 -198 0
-2 -12 13 -197 198 0
-2 -12 13 -197 -198 0
-7 14 30 199 200 0
-7 14 30 199 -200 0
-7 14 30 -199 200 0
-7 14 30 -199 -200 0
-8 -17 -19 201 202 0
-8 -17 -19 201 -202 0
-8 -17 -19 -201 202 0
-8 -17 -19 -201 -202 0
8 -22 49 203 204 0
8 -22 49 203 -204 0
8 -22 49 -203 204 0
8 -22 49 -203 -204 0
-12 -17 33 205 206 0
-12 -17 33 205 -206 0
-12 -17 33 -205 206 0
-12 -17 33 -205 -206 0
27 -29 32 207 208 0
27 -29 32 207 -208 0
27 -29 32 -207 208 0
27 -29 32 -207 -208 0
8 -12 -13 209 210 0
8 -12 -13 209 -210 0
8 -12 -13 -209 210 0
8 -12 -13 -209 -210 0
24 -31 47 211 212 0
24 -31 47 211 -212 0
24 -31 47 -211 212 0
24 -31 47 -211 -212 0
-3 36 47 213 214 0
-3 36 47 213 -214 0
-3 36 47 -213 214 0
-3 36 47 -213 -214 0
3 12 34 215 216 0
3 12 34 215 -216 0
3 12 34 -215 216 0
3 12 34 -215 -216 0
-7 -16 36 217 218 0
-7 -16 36 217 -218 0
-7 -16 36 -217 218 0
-7 -16 36 -217 -218 0
-22 31 48 219 220 0
-22 31 48 219 -220 0
-22 31 48 -219 220 0
-22 31 48 -219 -220 0
17 -22 -49 221 222 0
17 -22 -49 221 -222 0
17 -22 -49 -221 222 0
17 -22 -49 -221 -222 0
-17 -19 32 223 224 0
-17 -19 32 223 -224 0
-17 -19 32 -223 224 0
-17 -19 32 -223 -224 0
-20 27 36 225 226 0
-20 27 36 225 -226 0
-20 27 36 -225 226 0
-20 27 36 -225 -226 0
18 -32 -35 227 228 0
18 -32 -35 227 -228 0
18 -32 -35 -227 228 0
18 -32 -35 -227 -228 0
3 -28 -30 229 230 0
3 -28 -30 229 -230 0
3 -28 -30 -229 230 0
3 -28 -30 -229 -230 0
17 34 42 231 232 0
17 34 42 231 -232 0
17 34 42 -231 232 0
17 34 42 -231 -232 0
-32 -43 -49 233 234 0
-32 -43 -49 233 -234 0
-32 -43 -49 -233 234 0
-32 -43 -49 -233 -234 0
17 -28 -43 235 236 0
17 -28 -43 235 -236 0
17 -28 -43 -235 236 0
17 -28 -43 -235 -236 0
-23 35 -45 237 238 0
-23 35 -45 237 -238 0
-23 35 -45 -237 238 0
-23 35 -45 -237 -238 0
-10 31 -36 239 240 0
-10 31 -36 239 -240 0
-10 31 -36 -239 240 0
-10 31 -36 -239 -240 0
27 -41 42 241 242 0
27 -41 42 241 -242 0
27 -41 42 -241 242 0
27 -41 42 -241 -242 0
35 -36 45 243 244 0
35 -36 45 243 -244 0
35 -36 45 -243 244 0
35 -36 45 -243 -244 0
8 -30 45 245 246 0
8 -30 45 245 -246 0
8 -30 45 -245 246 0
8 -30 45 -245 -246 0
4 28 -35 247 248 0
4 28 -35 247 -248 0
4 28 -35 -247 248 0
4 28 -35 -247 -248 0
6 -11 -20 249 250 0
6 -11 -20 249 -250 0
6 -11 -20 -249 250 0
6 -11 -20 -249 -250 0
